width = 15;
ICs_number = 25;
IC_widths = [2, 3, 7, 4, 5, 2, 1, 1, 5, 3, 3, 5, 1, 4, 2, 4, 4, 2, 2, 2, 4, 4, 4, 2, 2];
IC_heights = [11, 2, 10, 8, 9, 7, 4, 6, 4, 8, 1, 5, 3, 12, 6, 2, 11, 10, 3, 11, 3, 26, 8, 3, 6];